MARKOV
4
2 2 2 2
8
1	0 
1	1 
1	2 
1	3 
2	0 1 
2	0 2 
2	2 3 
2	3 1 

2
0.337077 2.966682 

2
3.755477 0.266278 

2
0.889432 1.124313 

2
0.621656 1.608607 

4
4.773546 0.209488 0.209488 4.773546 

4
0.626848 1.595283 1.595283 0.626848 

4
1.849374 0.540723 0.540723 1.849374 

4
1.391437 0.718681 0.718681 1.391437 
